25 100
  0     35.0     35.0       0.0      230.0      0.0       0.0       0.0  
  1     41.0     49.0      151.0     181.0     10.0       2.0      10.0  
  2     35.0     17.0      40.0      70.0      10.0      11.0       7.0  
  3     55.0     45.0      106.0     136.0     10.0      13.0      13.0  
  4     55.0     20.0      139.0     169.0     10.0      30.0      19.0  
  5     15.0     30.0      24.0      54.0      10.0      14.0      26.0  
  6     25.0     30.0      89.0      119.0     10.0       5.0       3.0  
  7     20.0     50.0      71.0      101.0     10.0      10.0       5.0  
  8     10.0     43.0      85.0      115.0     10.0      16.0       9.0  
  9     55.0     60.0      87.0      117.0     10.0      12.0      16.0  
 10     30.0     60.0      114.0     144.0     10.0      11.0      16.0  
 11     20.0     65.0      57.0      87.0      10.0      12.0      12.0  
 12     50.0     35.0      53.0      83.0      10.0      38.0      19.0  
 13     30.0     25.0      149.0     179.0     10.0      33.0      23.0  
 14     15.0     10.0      32.0      62.0      10.0       3.0      20.0  
 15     30.0      5.0      51.0      81.0      10.0       3.0       8.0  
 16     10.0     20.0      65.0      95.0      10.0      25.0      19.0  
 17      5.0     30.0      147.0     177.0     10.0       1.0       2.0  
 18     20.0     40.0      77.0      107.0     10.0       7.0      12.0  
 19     15.0     60.0      66.0      96.0      10.0      24.0      17.0  
 20     45.0     65.0      116.0     146.0     10.0      15.0       9.0  
 21     45.0     20.0      52.0      82.0      10.0      15.0      11.0  
 22     45.0     10.0      87.0      117.0     10.0       6.0      18.0  
 23     55.0      5.0      58.0      88.0      10.0      36.0      29.0  
 24     65.0     35.0      143.0     173.0     10.0       5.0       3.0  
 25     65.0     20.0      156.0     186.0     10.0       3.0       6.0  
